NAME : XML100_3143_26
DIMENSION : 101
NB_CLUSTERS : 8
CLUSTERING_ALG : KMedoids
CLUSTERING_PARAMS : k(7)
CLUSTERS
1 0
2 2 35 36 38 40 44 49 52 76 87 93
3 3 12 13 16 23 39 71 77 80 83 89 98
4 4 6 22 24 28 30 33 45 46 50 58 64 65 73 78 79 85 86 91 99 100
5 10 20 26 37 42 43 47 53 56 57 60 67 72 74 81 95
6 5 7 11 15 18 21 32 41 55 59 61 63
7 1 9 17 19 29 31 34 66 68 70 75 84 88 92
8 8 14 25 27 48 51 54 62 69 82 90 94 96 97
EOF